
Log started (V22.2.0.0) Tue Jun  9 08:33:19 2026

New value for time limit in seconds: 120
New value for default parallel thread count: 4
New value for mixed integer optimality gap tolerance: 0.001
New value for level of mixed integer node display: 2

Problem 'results/InstanceB7_bigm_finsteps123.lp' read.
Read time = 0.01 sec. (0.60 ticks)
Version identifier: 22.2.0.0 | 2026-05-04 | 5dff98e58
CPXPARAM_Threads                                 4
CPXPARAM_TimeLimit                               120
CPXPARAM_MIP_Tolerances_MIPGap                   0.001
Tried aggregator 2 times.
MIP Presolve eliminated 46 rows and 46 columns.
MIP Presolve modified 47608 coefficients.
Aggregator did 366 substitutions.
Reduced MIP has 6122 rows, 3281 columns, and 17974 nonzeros.
Reduced MIP has 2915 binaries, 0 generals, 0 SOSs, and 0 indicators.
Presolve time = 0.01 sec. (25.17 ticks)
Found incumbent of value 72.000000 after 0.02 sec. (37.79 ticks)
Probing time = 0.00 sec. (4.53 ticks)
Tried aggregator 1 time.
Detecting symmetries...
MIP Presolve modified 16 coefficients.
Reduced MIP has 6122 rows, 3281 columns, and 17974 nonzeros.
Reduced MIP has 2915 binaries, 0 generals, 0 SOSs, and 0 indicators.
Presolve time = 0.01 sec. (9.92 ticks)
Probing time = 0.00 sec. (4.23 ticks)
Clique table members: 2003.
MIP emphasis: balance optimality and feasibility.
MIP search method: dynamic search.
Parallel mode: deterministic, using up to 4 threads.
Root relaxation solution time = 0.03 sec. (171.58 ticks)

        Nodes                                         Cuts/
   Node  Left     Objective  IInf  Best Integer    Best Bound    ItCnt     Gap

*     0+    0                           72.0000       22.0000            69.44%
*     0+    0                           69.0000       22.0000            68.12%
      0     0       22.0000    32       69.0000       22.0000     2568   68.12%
*     0+    0                           25.0000       22.0000            12.00%
      0     0        cutoff             25.0000                   2702    0.00%
Elapsed time = 0.10 sec. (276.15 ticks, tree = 0.01 MB, solutions = 3)

Clique cuts applied:  3
Implied bound cuts applied:  9
Mixed integer rounding cuts applied:  40

Root node processing (before b&c):
  Real time             =    0.11 sec. (276.41 ticks)
Parallel b&c, 4 threads:
  Real time             =    0.00 sec. (0.00 ticks)
  Sync time (average)   =    0.00 sec.
  Wait time (average)   =    0.00 sec.
                          ------------
Total (root+branch&cut) =    0.11 sec. (276.41 ticks)

Solution pool: 3 solutions saved.

MIP - Integer optimal solution:  Objective =  2.5000000000e+01
Solution time =    0.11 sec.  Iterations = 2702  Nodes = 0
Deterministic time = 276.42 ticks  (2587.13 ticks/sec)


Incumbent solution written to file 'results/InstanceB7_bigm_finsteps123.sol'.
